1 1 2 0
1 -1 -3 0
1 -4 2 0
1 -4 5 0
1 -4 -6 0
1 -7 -8 0
1 -7 9 0
1 2 10 0
1 2 -4 0
1 -6 -7 0
1 9 -7 0
1 -3 11 0
1 -3 12 0
1 3 -13 0
1 -10 -14 0
1 15 -14 0
1 -15 16 0
1 17 18 0
1 16 -19 0
1 16 -20 0
1 16 -4 0
1 -14 -16 0
1 14 -4 0
1 -21 -22 0
1 -21 23 0
1 24 -25 0
1 -19 -26 0
1 -27 -25 0
1 -28 24 0
1 28 29 0
1 25 -24 0
1 25 -17 0
1 -18 17 0
1 -18 -30 0
1 18 -31 0
1 -18 32 0
1 33 34 0
1 8 35 0
1 8 -36 0
1 -8 37 0
1 -35 38 0
1 -35 39 0
1 35 -40 0
1 -41 -42 0
1 40 43 0
1 -40 34 0
1 44 45 0
1 -46 -17 0
1 46 3 0
1 45 -26 0
1 -45 40 0
1 -43 38 0
1 -43 39 0
1 12 -45 0
1 -47 -5 0
1 26 -48 0
1 49 -5 0
1 49 45 0
1 -50 48 0
1 48 -47 0
1 -51 -46 0
1 51 -26 0
1 52 53 0
1 -52 -26 0
1 54 55 0
1 23 -55 0
1 23 -54 0
1 -23 5 0
1 -23 13 0
1 -56 57 0
1 -55 -58 0
1 -55 56 0
1 -55 54 0
1 -55 59 0
1 -55 60 0
1 -61 54 0
1 13 26 0
1 29 -62 0
1 -29 -63 0
1 -29 -64 0
1 -29 65 0
1 60 -62 0
1 60 -29 0
1 58 62 0
1 -66 57 0
1 66 -67 0
1 -65 -5 0
1 65 -59 0
1 -62 -59 0
1 -68 25 0
1 -31 18 0
1 -69 70 0
1 -69 71 0
1 -69 -31 0
1 -72 73 0
1 -74 75 0
1 -74 -76 0
1 74 77 0
1 78 79 0
1 77 80 0
1 75 78 0
1 81 82 0
1 81 83 0
1 -82 83 0
1 82 84 0
1 85 86 0
1 87 -36 0
1 88 -89 0
1 -79 36 0
1 -83 -82 0
1 -83 -36 0
1 -83 -80 0
1 90 -91 0
1 -38 88 0
1 -38 41 0
1 38 -92 0
1 -93 -94 0
1 -93 43 0
1 86 -95 0
1 92 96 0
1 -91 38 0
1 -97 -96 0
1 98 -86 0
1 -98 -94 0
1 98 -43 0
1 -98 -51 0
1 -98 97 0
1 -98 52 0
1 98 23 0
1 -53 86 0
1 53 94 0
1 -53 -56 0
1 -99 100 0
1 -99 101 0
1 -94 -35 0
1 102 -63 0
1 102 103 0
1 -100 -104 0
1 -100 -105 0
1 -42 -97 0
1 42 106 0
1 -63 107 0
1 63 101 0
1 -103 107 0
1 -103 -102 0
1 103 -108 0
1 103 109 0
1 103 106 0
1 103 -110 0
1 101 -111 0
1 -101 53 0
1 -108 -101 0
1 -108 53 0
1 -107 112 0
1 107 -63 0
1 -113 107 0
1 -111 -114 0
1 -59 -115 0
1 116 117 0
1 -116 -65 0
1 118 119 0
1 120 121 0
1 120 -103 0
1 120 -110 0
1 110 -71 0
1 -122 -62 0
1 -122 -123 0
1 -124 67 0
1 71 124 0
1 -123 -125 0
1 -126 -127 0
1 -126 -128 0
1 126 129 0
1 -119 126 0
1 119 130 0
1 70 -121 0
1 131 132 0
1 132 -133 0
1 -132 134 0
1 -135 -124 0
1 -135 132 0
1 136 -70 0
1 -136 -124 0
1 -137 138 0
1 137 -132 0
1 -137 -130 0
1 -139 -140 0
1 140 -135 0
1 -141 142 0
1 142 -132 0
1 142 143 0
1 -142 139 0
1 142 -131 0
1 133 -144 0
1 145 -146 0
1 -145 131 0
1 -147 -148 0
1 147 -131 0
1 -149 150 0
1 149 -151 0
1 -152 -153 0
1 154 -153 0
1 -153 155 0
1 -150 154 0
1 -156 -157 0
1 156 151 0
1 158 159 0
1 -160 161 0
1 160 162 0
1 160 -163 0
1 160 -164 0
1 -165 -166 0
1 -167 168 0
1 -167 169 0
1 -167 170 0
1 163 -171 0
1 -163 -172 0
1 163 -173 0
1 -80 174 0
1 175 -164 0
1 175 -79 0
1 -170 -168 0
1 170 -176 0
1 170 -164 0
1 -168 177 0
1 174 -178 0
1 -174 -164 0
1 166 179 0
1 166 180 0
1 -161 181 0
1 161 -182 0
1 161 -80 0
1 96 174 0
1 -96 176 0
1 -96 87 0
1 96 -92 0
1 178 164 0
1 -183 184 0
1 183 91 0
1 183 -185 0
1 -183 186 0
1 -177 -170 0
1 -177 106 0
1 176 -106 0
1 -185 159 0
1 187 185 0
1 -187 -188 0
1 105 -63 0
1 -95 -184 0
1 95 -105 0
1 -106 189 0
1 -106 190 0
1 -191 -192 0
1 -191 -95 0
1 -186 105 0
1 -193 -83 0
1 -194 -100 0
1 194 115 0
1 115 -100 0
1 115 -42 0
1 195 -196 0
1 195 -197 0
1 198 199 0
1 -198 -191 0
1 -196 190 0
1 -190 -200 0
1 -190 -106 0
1 -201 -189 0
1 189 -195 0
1 -202 -203 0
1 202 -204 0
1 -205 -199 0
1 -205 -202 0
1 205 107 0
1 -205 -109 0
1 -200 -206 0
1 -200 207 0
1 -208 -127 0
1 197 121 0
1 -199 -209 0
1 -199 210 0
1 -210 195 0
1 127 -197 0
1 -129 211 0
1 129 -131 0
1 212 200 0
1 212 130 0
1 -207 -213 0
1 -207 129 0
1 -214 215 0
1 214 -134 0
1 -216 -214 0
1 217 -212 0
1 -213 -138 0
1 213 -218 0
1 -219 220 0
1 221 -222 0
1 221 218 0
1 -221 -223 0
1 218 -220 0
1 -224 148 0
1 -128 225 0
1 -128 226 0
1 128 -227 0
1 -222 138 0
1 222 225 0
1 -222 128 0
1 -228 142 0
1 -148 -229 0
1 -148 230 0
1 -231 232 0
1 233 -234 0
1 -229 235 0
1 223 -235 0
1 -223 -228 0
1 236 -233 0
1 236 235 0
1 -236 -237 0
1 238 -229 0
1 -239 -240 0
1 241 -232 0
1 -241 -239 0
1 -241 -242 0
1 232 243 0
1 244 245 0
1 246 247 0
1 -248 -249 0
1 -247 -250 0
1 251 -252 0
1 251 253 0
1 252 254 0
1 -252 -84 0
1 157 255 0
1 -157 -256 0
1 -257 -258 0
1 -257 255 0
1 257 -259 0
1 -255 -173 0
1 255 -246 0
1 260 -157 0
1 258 -261 0
1 -155 -80 0
1 155 172 0
1 -262 263 0
1 -264 -265 0
1 264 -256 0
1 -264 266 0
1 265 267 0
1 -268 269 0
1 -268 270 0
1 -268 256 0
1 256 271 0
1 256 -264 0
1 256 -155 0
1 182 -272 0
1 182 -96 0
1 171 166 0
1 -273 -274 0
1 -275 -265 0
1 -276 -171 0
1 -276 -173 0
1 -276 -277 0
1 -274 173 0
1 278 -263 0
1 266 171 0
1 -266 -156 0
1 181 -161 0
1 -181 -267 0
1 -180 -279 0
1 180 181 0
1 -180 -280 0
1 281 192 0
1 281 -185 0
1 -281 282 0
1 283 -284 0
1 283 -273 0
1 283 -285 0
1 283 282 0
1 286 -281 0
1 286 172 0
1 -287 -176 0
1 -284 288 0
1 289 279 0
1 289 290 0
1 -289 198 0
1 289 186 0
1 291 292 0
1 291 289 0
1 291 -188 0
1 -293 -284 0
1 179 -188 0
1 290 282 0
1 204 294 0
1 -295 189 0
1 -295 205 0
1 295 291 0
1 295 285 0
1 -295 288 0
1 -296 -293 0
1 296 297 0
1 -298 -289 0
1 299 -298 0
1 299 -284 0
1 300 301 0
1 -209 196 0
1 -209 300 0
1 -302 303 0
1 304 302 0
1 304 -134 0
1 -304 -305 0
1 306 -307 0
1 301 308 0
1 301 309 0
1 305 -186 0
1 308 -310 0
1 -311 312 0
1 -313 308 0
1 313 -314 0
1 -313 -315 0
1 -303 308 0
1 -316 215 0
1 215 317 0
1 315 318 0
1 -319 315 0
1 -318 -320 0
1 -321 215 0
1 -321 322 0
1 -321 -227 0
1 310 323 0
1 -324 325 0
1 -324 227 0
1 226 326 0
1 327 -325 0
1 -327 -328 0
1 -329 -226 0
1 -330 -331 0
1 -330 -227 0
1 325 327 0
1 326 -332 0
1 225 -236 0
1 -225 333 0
1 225 -243 0
1 -225 334 0
1 -331 236 0
1 331 330 0
1 335 336 0
1 -335 -328 0
1 336 219 0
1 -336 -328 0
1 333 -337 0
1 333 -335 0
1 235 338 0
1 237 -339 0
1 340 -232 0
1 -340 341 0
1 342 232 0
1 -343 344 0
1 -343 237 0
1 343 335 0
1 -339 237 0
1 -338 340 0
1 345 -222 0
1 -345 -235 0
1 -346 -347 0
1 346 -348 0
1 349 -340 0
1 -349 350 0
1 349 351 0
1 349 342 0
1 352 346 0
1 352 -353 0
1 -354 340 0
1 355 -349 0
1 -355 -356 0
1 -356 357 0
1 -356 348 0
1 358 -359 0
1 -360 346 0
1 348 361 0
1 -362 -232 0
1 -362 363 0
1 362 364 0
1 -365 -366 0
1 367 -366 0
1 367 368 0
1 -367 -369 0
1 370 -366 0
1 -370 -371 0
1 366 -370 0
1 -372 -365 0
1 372 -373 0
1 372 -374 0
1 372 370 0
1 -372 367 0
1 375 376 0
1 375 377 0
1 -250 366 0
1 250 -378 0
1 -377 259 0
1 -378 -379 0
1 378 -261 0
1 378 -249 0
1 380 373 0
1 380 -375 0
1 -371 373 0
1 371 -259 0
1 -371 -370 0
1 381 382 0
1 381 383 0
1 384 -253 0
1 383 385 0
1 -383 -270 0
1 -382 261 0
1 -382 -269 0
1 386 261 0
1 -386 387 0
1 386 259 0
1 386 -250 0
1 -387 388 0
1 -387 261 0
1 387 -389 0
1 -387 -249 0
1 -271 -171 0
1 271 -390 0
1 269 391 0
1 -392 -393 0
1 -394 395 0
1 390 -396 0
1 397 261 0
1 391 261 0
1 391 -398 0
1 -391 -399 0
1 396 -385 0
1 396 -400 0
1 396 -180 0
1 401 278 0
1 401 281 0
1 -401 -390 0
1 401 402 0
1 -395 401 0
1 -403 269 0
1 -403 404 0
1 -403 395 0
1 277 405 0
1 406 278 0
1 406 407 0
1 -406 -274 0
1 -408 393 0
1 -408 409 0
1 -410 -411 0
1 -412 -413 0
1 -411 -401 0
1 411 406 0
1 409 -268 0
1 -409 -408 0
1 409 401 0
1 413 -279 0
1 -413 411 0
1 -285 411 0
1 -285 -414 0
1 415 290 0
1 -416 -417 0
1 418 -419 0
1 -418 -420 0
1 -421 415 0
1 421 408 0
1 -421 414 0
1 414 -422 0
1 423 -424 0
1 -419 -418 0
1 -420 425 0
1 420 426 0
1 420 -304 0
1 -417 -419 0
1 -417 -427 0
1 -417 423 0
1 417 428 0
1 -425 420 0
1 429 -430 0
1 431 -292 0
1 -431 -430 0
1 431 -429 0
1 432 426 0
1 -432 -417 0
1 -427 -294 0
1 -433 434 0
1 -435 -419 0
1 435 433 0
1 436 437 0
1 -436 307 0
1 436 427 0
1 -438 -427 0
1 426 439 0
1 426 -420 0
1 426 432 0
1 -440 -301 0
1 307 -303 0
1 307 -441 0
1 -307 434 0
1 442 -443 0
1 -437 444 0
1 445 294 0
1 445 446 0
1 -447 -298 0
1 -314 -448 0
1 314 -444 0
1 314 227 0
1 -312 -311 0
1 -312 449 0
1 446 450 0
1 -446 -445 0
1 -446 -448 0
1 -446 451 0
1 323 -451 0
1 -449 452 0
1 -449 -306 0
1 444 312 0
1 444 437 0
1 444 -301 0
1 443 437 0
1 448 453 0
1 448 442 0
1 320 -454 0
1 320 -326 0
1 320 -449 0
1 -332 -455 0
1 456 -332 0
1 -456 454 0
1 450 -457 0
1 451 -456 0
1 458 -459 0
1 -458 456 0
1 454 460 0
1 -461 -462 0
1 -461 326 0
1 -341 -462 0
1 341 457 0
1 -457 463 0
1 457 341 0
1 455 332 0
1 455 -464 0
1 455 -456 0
1 -465 466 0
1 -465 321 0
1 -467 464 0
1 -462 -332 0
1 -462 468 0
1 -466 469 0
1 -470 -328 0
1 -347 465 0
1 469 466 0
1 471 472 0
1 -473 -474 0
1 472 -337 0
1 -472 475 0
1 -476 -475 0
1 -476 -357 0
1 -476 477 0
1 337 -478 0
1 337 479 0
1 -480 478 0
1 -481 482 0
1 -481 -348 0
1 483 -482 0
1 484 485 0
1 486 -482 0
1 -486 484 0
1 487 -488 0
1 489 490 0
1 -491 -492 0
1 493 -494 0
1 494 -482 0
1 -492 495 0
1 485 484 0
1 -496 -497 0
1 498 -485 0
1 499 -363 0
1 -499 500 0
1 -501 -499 0
1 -361 499 0
1 363 502 0
1 503 504 0
1 505 506 0
1 -505 -507 0
1 -508 509 0
1 -504 -510 0
1 -504 368 0
1 511 -503 0
1 -512 -372 0
1 374 -376 0
1 513 514 0
1 509 -513 0
1 507 374 0
1 507 -505 0
1 507 513 0
1 -515 -506 0
1 516 517 0
1 517 -506 0
1 517 518 0
1 517 -374 0
1 -519 -369 0
1 -373 381 0
1 -373 -507 0
1 373 520 0
1 -521 371 0
1 -521 -384 0
1 -522 371 0
1 -522 380 0
1 -520 519 0
1 -520 -513 0
1 -523 524 0
1 -525 526 0
1 525 527 0
1 389 -528 0
1 -389 -529 0
1 -389 -380 0
1 388 530 0
1 -388 531 0
1 529 -399 0
1 -529 -532 0
1 533 529 0
1 -533 -534 0
1 530 -379 0
1 -399 535 0
1 -399 382 0
1 -399 -391 0
1 399 -397 0
1 -385 535 0
1 385 387 0
1 398 -536 0
1 398 534 0
1 -398 397 0
1 534 -535 0
1 -534 -537 0
1 -538 404 0
1 539 -405 0
1 539 -538 0
1 539 534 0
1 -531 540 0
1 405 541 0
1 -405 -391 0
1 542 406 0
1 542 -540 0
1 543 539 0
1 543 -544 0
1 543 -545 0
1 -543 -404 0
1 -546 383 0
1 -546 398 0
1 -547 -542 0
1 -537 548 0
1 537 405 0
1 -537 -534 0
1 -541 -549 0
1 550 -393 0
1 -550 -545 0
1 550 407 0
1 550 -546 0
1 -551 -552 0
1 -553 554 0
1 -553 409 0
1 555 556 0
1 -555 550 0
1 -555 -557 0
1 558 -550 0
1 558 -559 0
1 -560 -292 0
1 -560 -561 0
1 -562 -420 0
1 -562 -563 0
1 -564 -565 0
1 -564 -566 0
1 561 553 0
1 -554 565 0
1 563 -554 0
1 -563 567 0
1 568 -569 0
1 -568 414 0
1 -570 564 0
1 570 -561 0
1 -570 -414 0
1 566 569 0
1 -571 567 0
1 -572 -568 0
1 572 573 0
1 572 -574 0
1 569 -573 0
1 -575 566 0
1 -428 -576 0
1 428 -431 0
1 -430 -417 0
1 -574 -577 0
1 578 -579 0
1 -578 572 0
1 -576 -580 0
1 576 428 0
1 -581 -582 0
1 -581 583 0
1 581 -574 0
1 422 571 0
1 580 -584 0
1 -580 -438 0
1 -580 447 0
1 -439 426 0
1 439 -441 0
1 439 -585 0
1 -586 587 0
1 586 441 0
1 -586 577 0
1 -577 -439 0
1 -584 -453 0
1 -588 -589 0
1 -588 582 0
1 588 590 0
1 -591 441 0
1 591 -448 0
1 591 -577 0
1 -592 593 0
1 -594 595 0
1 -594 586 0
1 -594 -596 0
1 -597 598 0
1 597 -599 0
1 600 -453 0
1 600 -426 0
1 460 601 0
1 -596 602 0
1 -596 460 0
1 593 603 0
1 593 434 0
1 -602 -603 0
1 602 -592 0
1 -602 -604 0
1 605 -606 0
1 -605 598 0
1 601 -606 0
1 -601 596 0
1 -459 -451 0
1 607 -608 0
1 -609 607 0
1 609 -610 0
1 -611 612 0
1 611 609 0
1 -613 -614 0
1 -615 -467 0
1 -616 -467 0
1 617 618 0
1 -617 -611 0
1 -619 617 0
1 -619 620 0
1 619 -611 0
1 619 -621 0
1 -622 623 0
1 -622 616 0
1 622 -624 0
1 625 622 0
1 -610 626 0
1 610 616 0
1 -478 622 0
1 -478 620 0
1 478 -621 0
1 -627 628 0
1 -627 -337 0
1 627 629 0
1 627 630 0
1 631 -627 0
1 632 -633 0
1 632 634 0
1 -620 -624 0
1 621 -635 0
1 621 -634 0
1 -636 -637 0
1 636 -493 0
1 638 -632 0
1 -639 637 0
1 -639 -627 0
1 -637 -471 0
1 -640 -641 0
1 -640 -642 0
1 -643 -644 0
1 -643 642 0
1 645 482 0
1 645 -487 0
1 -646 489 0
1 -646 -647 0
1 -500 -497 0
1 500 -647 0
1 497 -648 0
1 497 500 0
1 649 -650 0
1 -649 -638 0
1 649 -475 0
1 -649 645 0
1 -651 645 0
1 -479 646 0
1 479 652 0
1 479 -500 0
1 502 -653 0
1 -653 502 0
1 -654 488 0
1 -655 656 0
1 657 653 0
1 657 -658 0
1 657 -659 0
1 -657 660 0
1 -488 -661 0
1 -488 654 0
1 488 662 0
1 661 497 0
1 -661 -658 0
1 660 663 0
1 -660 664 0
1 -660 665 0
1 660 -361 0
1 -666 665 0
1 667 -666 0
1 667 495 0
1 495 -668 0
1 -669 -655 0
1 669 670 0
1 -671 672 0
1 -656 -671 0
1 -656 673 0
1 670 674 0
1 -675 676 0
1 675 677 0
1 -675 -659 0
1 -674 670 0
1 674 678 0
1 -679 -680 0
1 -679 674 0
1 -677 -681 0
1 -682 683 0
1 684 506 0
1 684 685 0
1 -686 687 0
1 -686 688 0
1 683 689 0
1 -683 -686 0
1 -683 690 0
1 691 692 0
1 691 -693 0
1 -687 -682 0
1 -690 694 0
1 690 512 0
1 -695 689 0
1 695 -696 0
1 695 688 0
1 -514 -697 0
1 697 509 0
1 -688 -697 0
1 -698 697 0
1 -698 -699 0
1 -700 701 0
1 702 -703 0
1 -702 -688 0
1 -702 -704 0
1 702 -705 0
1 -702 693 0
1 -510 706 0
1 -707 705 0
1 706 -708 0
1 -705 -518 0
1 705 709 0
1 710 -697 0
1 710 -704 0
1 704 -711 0
1 712 -713 0
1 -518 379 0
1 -714 -715 0
1 -714 716 0
1 526 -717 0
1 718 713 0
1 719 708 0
1 -719 -720 0
1 717 -721 0
1 -524 385 0
1 524 722 0
1 -524 -716 0
1 -536 -723 0
1 -536 -724 0
1 -715 725 0
1 -715 726 0
1 715 -714 0
1 -727 -728 0
1 -716 524 0
1 -725 535 0
1 -540 -533 0
1 -540 725 0
1 544 -729 0
1 544 -535 0
1 544 730 0
1 731 725 0
1 729 -548 0
1 -729 732 0
1 -527 -733 0
1 -548 730 0
1 -548 -532 0
1 -548 -538 0
1 -552 734 0
1 552 535 0
1 552 -548 0
1 -735 532 0
1 736 541 0
1 736 -730 0
1 532 -734 0
1 532 548 0
1 734 732 0
1 730 -737 0
1 -730 -552 0
1 -738 -739 0
1 -549 -558 0
1 549 740 0
1 -549 -545 0
1 -740 -539 0
1 -741 -735 0
1 742 743 0
1 -742 -735 0
1 -744 555 0
1 744 -745 0
1 -746 -558 0
1 -747 -748 0
1 747 749 0
1 -747 750 0
1 747 -751 0
1 750 -752 0
1 -749 -753 0
1 -754 -567 0
1 755 -744 0
1 -756 -750 0
1 753 575 0
1 753 -574 0
1 579 757 0
1 -579 575 0
1 751 758 0
1 -751 567 0
1 759 758 0
1 583 751 0
1 -757 -760 0
1 -761 762 0
1 -761 -763 0
1 -763 -563 0
1 763 764 0
1 -765 422 0
1 582 -766 0
1 -582 -576 0
1 590 589 0
1 590 -767 0
1 -589 453 0
1 -589 768 0
1 768 -769 0
1 -768 -770 0
1 -771 -772 0
1 -771 -773 0
1 771 -765 0
1 -774 -589 0
1 774 775 0
1 774 -776 0
1 -777 772 0
1 778 -779 0
1 -780 781 0
1 780 782 0
1 -599 768 0
1 -783 606 0
1 -783 590 0
1 -767 -784 0
1 -767 -599 0
1 785 -589 0
1 785 581 0
1 785 -590 0
1 598 781 0
1 598 -459 0
1 -786 781 0
1 786 -600 0
1 -786 783 0
1 606 -783 0
1 784 -787 0
1 -784 -609 0
1 -782 -786 0
1 781 606 0
1 -781 -788 0
1 -781 786 0
1 787 789 0
1 787 790 0
1 -787 599 0
1 -791 -792 0
1 -791 -780 0
1 -791 787 0
1 -791 -793 0
1 -794 795 0
1 -794 796 0
1 -797 798 0
1 -797 795 0
1 -797 -782 0
1 797 793 0
1 614 613 0
1 -614 799 0
1 -614 -608 0
1 788 -614 0
1 795 800 0
1 -795 626 0
1 -796 801 0
1 -796 -614 0
1 -798 790 0
1 798 802 0
1 803 612 0
1 803 -478 0
1 803 804 0
1 -626 -795 0
1 626 610 0
1 -805 806 0
1 -807 -628 0
1 807 -614 0
1 624 -622 0
1 -624 -620 0
1 -623 -808 0
1 623 618 0
1 623 -799 0
1 623 -624 0
1 -809 -810 0
1 -809 -811 0
1 -635 805 0
1 808 812 0
1 -808 -635 0
1 808 -634 0
1 -813 814 0
1 -815 -816 0
1 -815 817 0
1 -634 621 0
1 -634 -645 0
1 -644 -818 0
1 -644 -819 0
1 -644 643 0
1 -820 810 0
1 820 -819 0
1 -820 817 0
1 812 -643 0
1 -818 -642 0
1 -821 818 0
1 -810 822 0
1 -810 819 0
1 642 -823 0
1 -642 821 0
1 -642 816 0
1 823 -639 0
1 -823 647 0
1 -824 825 0
1 824 -647 0
1 -633 -650 0
1 633 632 0
1 826 -823 0
1 827 -812 0
1 -827 -828 0
1 827 -829 0
1 -827 -642 0
1 830 831 0
1 -830 829 0
1 832 650 0
1 -832 833 0
1 -650 833 0
1 834 -488 0
1 834 662 0
1 -662 835 0
1 825 -658 0
1 -825 -639 0
1 -825 824 0
1 836 -672 0
1 836 825 0
1 837 640 0
1 837 -833 0
1 -833 838 0
1 658 -836 0
1 659 -825 0
1 -659 -835 0
1 839 -672 0
1 839 658 0
1 -840 -672 0
1 840 673 0
1 652 841 0
1 652 842 0
1 652 843 0
1 652 844 0
1 652 -673 0
1 835 -843 0
1 845 -495 0
1 846 847 0
1 -681 848 0
1 681 -676 0
1 849 -850 0
1 849 845 0
1 -849 -672 0
1 -849 -851 0
1 -852 -847 0
1 -847 -853 0
1 -847 672 0
1 847 -854 0
1 -678 855 0
1 -678 851 0
1 -856 857 0
1 848 -681 0
1 -858 856 0
1 -858 -859 0
1 860 -856 0
1 -861 656 0
1 -861 -862 0
1 -863 -858 0
1 -864 -858 0
1 -864 -857 0
1 -864 865 0
1 -866 867 0
1 -866 -859 0
1 -866 865 0
1 -857 -856 0
1 857 -865 0
1 868 -869 0
1 870 -871 0
1 872 -692 0
1 872 -873 0
1 -874 685 0
1 694 -687 0
1 696 874 0
1 -692 875 0
1 692 873 0
1 -871 -685 0
1 -871 -876 0
1 871 877 0
1 876 -696 0
1 -876 -878 0
1 -879 -880 0
1 -693 875 0
1 693 881 0
1 882 -881 0
1 881 883 0
1 883 -693 0
1 875 692 0
1 875 -693 0
1 -884 -885 0
1 -884 -886 0
1 701 711 0
1 711 886 0
1 -711 -887 0
1 -711 -700 0
1 711 701 0
1 -888 889 0
1 890 -888 0
1 891 892 0
1 -893 890 0
1 893 -894 0
1 -893 -895 0
1 -887 896 0
1 887 877 0
1 887 699 0
1 -897 722 0
1 720 -898 0
1 -720 -899 0
1 892 719 0
1 -898 -900 0
1 -898 890 0
1 -898 901 0
1 898 -902 0
1 898 888 0
1 -903 720 0
1 904 890 0
1 905 904 0
1 905 888 0
1 -905 906 0
1 -721 898 0
1 721 -725 0
1 -721 907 0
1 -721 -713 0
1 -728 709 0
1 908 -909 0
1 908 709 0
1 -908 -732 0
1 -709 -910 0
1 -911 907 0
1 -907 912 0
1 913 914 0
1 -913 -915 0
1 -916 -909 0
1 -916 -527 0
1 910 -917 0
1 910 736 0
1 -910 -918 0
1 918 -739 0
1 -918 -910 0
1 -918 -908 0
1 -914 902 0
1 733 726 0
1 733 731 0
1 -733 -919 0
1 -733 918 0
1 733 527 0
1 -737 -752 0
1 737 -920 0
1 -737 -739 0
1 737 730 0
1 739 -921 0
1 739 -922 0
1 726 910 0
1 -923 924 0
1 923 739 0
1 925 -926 0
1 -925 -927 0
1 -928 -733 0
1 743 -744 0
1 743 738 0
1 -924 -742 0
1 924 532 0
1 -929 930 0
1 -931 929 0
1 -931 -932 0
1 -931 921 0
1 -931 -933 0
1 -921 -731 0
1 -934 935 0
1 -934 936 0
1 -934 739 0
1 -937 -724 0
1 -938 921 0
1 -939 940 0
1 -939 -930 0
1 930 -929 0
1 -930 -941 0
1 -941 -931 0
1 -941 -942 0
1 941 -943 0
1 933 -943 0
1 -944 945 0
1 946 -947 0
1 -948 -947 0
1 949 950 0
1 -951 -939 0
1 951 -952 0
1 -764 949 0
1 -764 -763 0
1 766 953 0
1 954 -955 0
1 954 -956 0
1 -957 -762 0
1 -956 -958 0
1 -956 -749 0
1 956 959 0
1 960 961 0
1 960 -952 0
1 -762 761 0
1 762 777 0
1 962 -760 0
1 -962 762 0
1 -962 -763 0
1 -962 -757 0
1 776 -957 0
1 963 964 0
1 -965 -954 0
1 965 776 0
1 965 -962 0
1 -966 -772 0
1 967 968 0
1 968 -962 0
1 969 -772 0
1 -969 -785 0
1 -970 -965 0
1 970 775 0
1 970 966 0
1 970 971 0
1 972 970 0
1 973 -972 0
1 964 970 0
1 -971 -763 0
1 793 974 0
1 -793 975 0
1 -793 -767 0
1 -976 977 0
1 978 979 0
1 -978 975 0
1 977 790 0
1 773 980 0
1 775 -981 0
1 -775 793 0
1 -982 980 0
1 792 983 0
1 792 -773 0
1 790 791 0
1 -801 628 0
1 -801 -979 0
1 984 -798 0
1 979 985 0
1 986 -790 0
1 987 -988 0
1 -802 -989 0
1 -802 624 0
1 -989 -990 0
1 -989 -795 0
1 -811 991 0
1 -992 807 0
1 993 994 0
1 995 996 0
1 -995 992 0
1 997 -984 0
1 -990 -992 0
1 -990 989 0
1 -990 984 0
1 -990 -997 0
1 990 998 0
1 996 988 0
1 -996 804 0
1 996 999 0
1 -996 -813 0
1 817 806 0
1 817 -1000 0
1 -817 813 0
1 -994 806 0
1 994 -1001 0
1 991 -1002 0
1 991 816 0
1 -991 -817 0
1 1003 1004 0
1 -1003 -1005 0
1 1003 -1006 0
1 -1007 810 0
1 -1008 814 0
1 1009 829 0
1 -1009 -1010 0
1 -806 -1011 0
1 -1001 -1012 0
1 -1001 804 0
1 1013 -816 0
1 1014 810 0
1 -1014 -821 0
1 -831 1014 0
1 829 -822 0
1 -1015 -1016 0
1 1017 1018 0
1 -814 -831 0
1 814 1019 0
1 1016 1020 0
1 1016 1019 0
1 1021 -827 0
1 1021 -658 0
1 1021 -1017 0
1 1022 1023 0
1 -838 1018 0
1 -838 1024 0
1 1025 1026 0
1 -1025 -1015 0
1 -1027 838 0
1 822 -1020 0
1 -1028 845 0
1 1028 837 0
1 -1028 -825 0
1 -844 1025 0
1 841 1029 0
1 843 1030 0
1 843 1031 0
1 -843 1032 0
1 843 1029 0
1 843 1033 0
1 1032 -853 0
1 828 1028 0
1 -1024 -841 0
1 -853 -854 0
1 1034 -842 0
1 -1034 1035 0
1 -1036 -1035 0
1 -1033 -1037 0
1 -1033 -841 0
1 1038 -1039 0
1 -1029 -1035 0
1 850 -842 0
1 1040 -1041 0
1 1040 -864 0
1 1042 -1043 0
1 1042 860 0
1 1044 1045 0
1 1041 1046 0
1 1041 1047 0
1 1045 1048 0
1 -1045 858 0
1 1045 -862 0
1 -1045 -1049 0
1 -862 -861 0
1 862 1039 0
1 -862 -1045 0
1 1050 1051 0
1 -1052 -1043 0
1 -1051 -1053 0
1 -1051 1045 0
1 -1054 847 0
1 -1054 1055 0
1 -1054 -862 0
1 -1056 -1057 0
1 -1056 1058 0
1 -1059 -1056 0
1 -1060 -1055 0
1 1060 -1061 0
1 1062 -1061 0
1 1062 -1056 0
1 1063 1064 0
1 1065 -1062 0
1 -1065 1066 0
1 -1061 1067 0
1 1068 1065 0
1 -1069 -1059 0
1 878 -1070 0
1 878 875 0
1 886 1071 0
1 -889 1070 0
1 -889 1072 0
1 1073 -886 0
1 1073 -872 0
1 -1070 878 0
1 1072 886 0
1 1074 -1075 0
1 -1074 -884 0
1 -1076 -884 0
1 -895 1070 0
1 -1077 1078 0
1 1077 906 0
1 -1079 906 0
1 -880 -1075 0
1 880 1078 0
1 -880 1080 0
1 906 -887 0
1 906 -905 0
1 906 728 0
1 -1081 1082 0
1 -1081 1077 0
1 -1083 -1084 0
1 -1083 -1085 0
1 1085 906 0
1 1086 896 0
1 1086 -1084 0
1 -1086 894 0
1 901 -898 0
1 -901 -907 0
1 1087 -1088 0
1 -1089 911 0
1 912 -1090 0
1 1088 -901 0
1 -1082 -1091 0
1 -1082 -912 0
1 -1092 -1093 0
1 -1092 -1094 0
1 -1093 1092 0
1 -1095 -1090 0
1 -1095 -1096 0
1 -919 -1097 0
1 920 -900 0
1 920 1098 0
1 -1099 900 0
1 900 1089 0
1 900 -1097 0
1 -1090 1100 0
1 -1096 -1089 0
1 -1096 -1100 0
1 1101 928 0
1 -1102 1103 0
1 -1104 1105 0
1 -1098 1106 0
1 -1098 920 0
1 927 1107 0
1 927 923 0
1 -927 -1108 0
1 -927 -938 0
1 -1109 926 0
1 -1109 922 0
1 940 -1110 0
1 -1110 1111 0
1 1110 1112 0
1 1110 1113 0
1 -1110 -927 0
1 1114 1115 0
1 1114 -1116 0
1 -1114 1113 0
1 1114 918 0
1 1117 1118 0
1 1117 -940 0
1 1119 1120 0
1 -1121 942 0
1 1121 -1119 0
1 -1120 -1122 0
1 953 1123 0
1 953 941 0
1 -1124 1123 0
1 1124 935 0
1 -1124 -1125 0
1 -955 1121 0
1 1126 -935 0
1 935 1127 0
1 935 1113 0
1 -1128 -1129 0
1 1128 1130 0
1 -1123 953 0
1 1123 1131 0
1 -1123 1132 0
1 -1127 -951 0
1 -961 947 0
1 -961 776 0
1 -1133 963 0
1 1134 -961 0
1 1134 -952 0
1 -1134 -1133 0
1 1135 958 0
1 1135 961 0
1 -1136 -933 0
1 -1136 -1133 0
1 -1137 1124 0
1 -958 947 0
1 -958 960 0
1 958 957 0
1 1138 -967 0
1 1138 1135 0
1 1138 1139 0
1 -1140 1141 0
1 1140 -1134 0
1 1140 1142 0
1 -1143 1144 0
1 1143 -1139 0
1 -1145 -1146 0
1 -1145 -1147 0
1 -1146 -1148 0
1 1146 958 0
1 1146 -1143 0
1 -1142 1149 0
1 1142 1139 0
1 -1150 -967 0
1 -1151 1144 0
1 1151 -1152 0
1 1151 -971 0
1 1148 1144 0
1 1148 -1149 0
1 -1153 -964 0
1 1153 -971 0
1 -1144 -1154 0
1 -1144 1153 0
1 -1152 1153 0
1 -1155 -1154 0
1 1155 -1156 0
1 -1155 -1157 0
1 1155 -1158 0
1 1155 960 0
1 -1157 947 0
1 -983 -1159 0
1 -1160 -1161 0
1 981 1162 0
1 -981 1152 0
1 1162 965 0
1 -1162 1148 0
1 1162 1163 0
1 1164 1165 0
1 1159 1163 0
1 -1161 -1153 0
1 1161 -1166 0
1 -1167 -1168 0
1 -980 -1169 0
1 -1165 -1170 0
1 -1171 1160 0
1 -1171 -1172 0
1 1173 1174 0
1 1174 -1175 0
1 1174 1176 0
1 -1177 1168 0
1 -988 986 0
1 -988 -1170 0
1 988 1169 0
1 -988 -1178 0
1 988 1177 0
1 -1179 -817 0
1 1180 1171 0
1 -1170 -1181 0
1 1170 -1180 0
1 1182 -1183 0
1 -1182 -1178 0
1 1178 1175 0
1 -1178 -1179 0
1 1178 -1184 0
1 1178 -1165 0
1 998 816 0
1 1005 -1007 0
1 1005 993 0
1 -1185 1186 0
1 1185 1187 0
1 -1185 -1188 0
1 1186 1189 0
1 -1186 1187 0
1 985 -1004 0
1 985 -1186 0
1 1190 986 0
1 -1187 -1191 0
1 1187 -1186 0
1 -1187 -1180 0
1 -1192 -1193 0
1 1194 1190 0
1 -1194 1006 0
1 1194 -1195 0
1 -1194 -1196 0
1 1197 -1196 0
1 1197 1198 0
1 -1012 -1191 0
1 -1195 1185 0
1 1199 1004 0
1 -1199 -1194 0
1 -1199 1185 0
1 1200 -1002 0
1 1200 -1021 0
1 1200 1196 0
1 -1200 1001 0
1 1010 -814 0
1 -1201 1202 0
1 1201 -1198 0
1 1198 1010 0
1 1002 -1198 0
1 -1202 1203 0
1 1202 -1003 0
1 -1204 1205 0
1 -1204 -1010 0
1 1206 -1016 0
1 1020 822 0
1 -1020 1002 0
1 1020 -1011 0
1 1207 1208 0
1 -1209 1210 0
1 -1209 843 0
1 1209 1211 0
1 1211 -1026 0
1 1011 1026 0
1 1011 1207 0
1 1212 -1209 0
1 1213 1020 0
1 -1026 1024 0
1 -1214 -1215 0
1 -1214 -1208 0
1 -1214 -1024 0
1 1216 1211 0
1 1217 -1207 0
1 1217 -1218 0
1 -1210 -1219 0
1 -1210 -1017 0
1 -1210 1220 0
1 -1221 1222 0
1 1208 1214 0
1 1208 1026 0
1 1208 -1223 0
1 1224 1038 0
1 -1219 -1225 0
1 -1215 1214 0
1 1215 -1048 0
1 -1226 -1219 0
1 1225 -1219 0
1 -1225 1227 0
1 1048 1215 0
1 1039 -1038 0
1 1047 -1215 0
1 1228 1219 0
1 -1228 1229 0
1 1228 1230 0
1 1231 -1232 0
1 -1231 1233 0
1 1231 -1048 0
1 -1233 1024 0
1 1233 1229 0
1 -1230 -1234 0
1 -1235 1236 0
1 -1235 -1228 0
1 -1237 -1230 0
1 1037 -1230 0
1 1037 -1238 0
1 1236 1229 0
1 -1239 -1058 0
1 -1053 1066 0
1 -1240 -1241 0
1 -1240 -1054 0
1 1242 1243 0
1 1244 1058 0
1 -1078 -880 0
1 1078 -1245 0
1 -1246 1247 0
1 1246 1248 0
1 1249 1250 0
1 -1249 -1251 0
1 -1249 1086 0
1 -1251 -1246 0
1 1251 -1252 0
1 1251 1249 0
1 1084 -1253 0
1 -1084 1247 0
1 1254 -1253 0
1 1254 1250 0
1 -1248 -1255 0
1 1248 -1256 0
1 -1248 -1257 0
1 1247 1246 0
1 1247 1258 0
1 -1257 -1088 0
1 1091 -1259 0
1 1256 1096 0
1 -1260 1261 0
1 1260 1107 0
1 -1262 1263 0
1 -1262 -1264 0
1 1262 -1265 0
1 1259 1255 0
1 1259 1266 0
1 -1259 1086 0
1 -1259 1265 0
1 1267 -1256 0
1 1267 -1268 0
1 -1267 -1091 0
1 1107 1269 0
1 -1107 1098 0
1 1100 -1262 0
1 1100 1111 0
1 1270 1262 0
1 1270 -1271 0
1 -1261 1260 0
1 1261 1272 0
1 1269 1261 0
1 -1269 1100 0
1 -1272 1273 0
1 1272 -1274 0
1 -1273 1275 0
1 1273 1093 0
1 -1276 1277 0
1 1276 -1269 0
1 1276 1103 0
1 -1105 -1277 0
1 1278 1279 0
1 1278 -1280 0
1 1118 1281 0
1 -1118 1108 0
1 -1279 -1282 0
1 -1271 -1122 0
1 1283 1275 0
1 -1280 -1284 0
1 1112 1271 0
1 -1282 -926 0
1 1282 -1285 0
1 1286 1277 0
1 -1286 -1287 0
1 1288 1285 0
1 -1288 -1278 0
1 -1285 1289 0
1 1285 -1278 0
1 1290 -1129 0
1 -1290 -952 0
1 -1290 1284 0
1 -1129 1291 0
1 1129 1292 0
1 -1129 1293 0
1 -1129 1120 0
1 -1294 1110 0
1 1294 -1131 0
1 -1294 -1295 0
1 1296 1129 0
1 -1296 1282 0
1 1296 -1297 0
1 -1298 1132 0
1 -1131 1299 0
1 1131 -1300 0
1 -1301 -935 0
1 -1301 1137 0
1 1141 -1297 0
1 1141 -1136 0
1 -1141 1295 0
1 1295 1302 0
1 1303 1304 0
1 1303 -1305 0
1 -1303 1301 0
1 -1303 -1132 0
1 1300 1131 0
1 -1306 1302 0
1 -1307 -1137 0
1 -1307 1135 0
1 -1307 1150 0
1 1305 1308 0
1 -1305 -1307 0
1 -1305 1130 0
1 1305 -1142 0
1 1305 1300 0
1 1149 -1309 0
1 1310 1309 0
1 1310 -1311 0
1 1308 -1312 0
1 -1130 1313 0
1 1130 1307 0
1 -1314 -1123 0
1 -1314 1315 0
1 -1316 1308 0
1 1316 -1317 0
1 1156 -1318 0
1 -1156 -1319 0
1 -1319 1149 0
1 -1319 -1316 0
1 -1317 1320 0
1 -1154 1321 0
1 1154 1152 0
1 -1154 1158 0
1 1322 -1323 0
1 -1322 1319 0
1 1322 -1165 0
1 1324 1159 0
1 -1324 1321 0
1 -1147 -1163 0
1 -1325 1156 0
1 1325 -1146 0
1 1326 1322 0
1 1321 1327 0
1 -1166 -1164 0
1 1163 1159 0
1 1163 -1162 0
1 1163 -1320 0
1 -1163 1164 0
1 -1163 -1174 0
1 1163 -1328 0
1 -1329 -1147 0
1 -1330 -1331 0
1 -1330 -1332 0
1 1330 1333 0
1 -1323 1334 0
1 1323 -1329 0
1 -1331 1324 0
1 -1328 1327 0
1 -1335 1336 0
1 -1335 -1337 0
1 1338 -1331 0
1 1338 -1178 0
1 1172 -1332 0
1 1172 -1178 0
1 1339 1323 0
1 1339 -1340 0
1 1339 1176 0
1 -1339 -1341 0
1 -1339 1342 0
1 1343 -1182 0
1 -1343 1176 0
1 1344 -1345 0
1 1333 -1330 0
1 -1340 -1332 0
1 -1181 1333 0
1 1193 1346 0
1 -1193 1176 0
1 1193 1192 0
1 -1191 -1344 0
1 -1191 -1187 0
1 1191 -1184 0
1 -1342 -1181 0
1 1342 -1347 0
1 -1348 -1199 0
1 -1348 1195 0
1 1348 1349 0
1 1350 -1183 0
1 1350 1351 0
1 1352 -1353 0
1 1352 -1195 0
1 1354 1355 0
1 1354 -1193 0
1 -1183 1356 0
1 -1184 -1357 0
1 1184 -1350 0
1 -1358 -1359 0
1 1360 1361 0
1 1353 -1362 0
1 1353 1363 0
1 1205 1360 0
1 -1205 -1363 0
1 -1205 1202 0
1 -1364 1365 0
1 1364 -1366 0
1 -1364 1213 0
1 -1364 1367 0
1 1359 1368 0
1 -1369 1370 0
1 1369 1371 0
1 1372 -1203 0
1 1373 -1374 0
1 -1223 -1366 0
1 -1223 -1211 0
1 1368 -1375 0
1 1368 1366 0
1 1376 -1221 0
1 1376 -1208 0
1 1376 1377 0
1 1376 -1378 0
1 -1367 1379 0
1 -1367 1380 0
1 -1367 -1218 0
1 1366 1381 0
1 1366 -1382 0
1 1383 1368 0
1 -1383 1375 0
1 -1375 1204 0
1 -1218 -1208 0
1 1218 -1227 0
1 1384 -1218 0
1 -1385 1386 0
1 -1385 -1225 0
1 1387 1386 0
1 -1388 -1234 0
1 -1388 -1385 0
1 1378 -1389 0
1 1390 1368 0
1 -1391 1392 0
1 1391 1382 0
1 -1234 -1386 0
1 1393 -1388 0
1 -1393 -1220 0
1 -1386 1394 0
1 -1386 -1395 0
1 1386 1389 0
1 -1396 -1387 0
1 1396 1393 0
1 -1397 -1387 0
1 -1397 -1398 0
1 -1397 -1393 0
1 1229 -1233 0
1 1395 1399 0
1 1395 -1233 0
1 1400 1401 0
1 -1400 1236 0
1 -1400 -1402 0
1 -1400 -1220 0
1 -1394 -1403 0
1 -1399 -1229 0
1 -1255 -1247 0
1 -1404 -1270 0
1 -1405 1406 0
1 -1407 -1255 0
1 -1406 1255 0
1 1406 1253 0
1 1406 1405 0
1 1252 1255 0
1 1252 -1408 0
1 1408 -1405 0
1 -1265 1409 0
1 -1266 -1409 0
1 -1266 -1273 0
1 -1266 1410 0
1 -1410 -1275 0
1 1410 1248 0
1 1411 1412 0
1 1258 -1266 0
1 -1258 -1413 0
1 -1409 1281 0
1 1409 1265 0
1 1414 1415 0
1 1414 1263 0
1 1275 -1263 0
1 1275 1410 0
1 1416 1417 0
1 -1416 -1263 0
1 -1416 -1418 0
1 1419 -1263 0
1 1419 1413 0
1 1263 1262 0
1 1415 1420 0
1 -1420 1421 0
1 1420 1416 0
1 -1420 1422 0
1 1284 -1417 0
1 1284 1283 0
1 1284 -1291 0
1 1284 1423 0
1 -1291 1417 0
1 -1291 1423 0
1 1291 -1285 0
1 -1424 -1425 0
1 -1424 -1418 0
1 1424 -1426 0
1 -1424 1274 0
1 -1417 -1427 0
1 1417 1428 0
1 1423 1428 0
1 1418 -1273 0
1 1418 -1429 0
1 1428 -1288 0
1 -1428 1285 0
1 1430 -1425 0
1 1430 1288 0
1 1430 -1423 0
1 1430 -1431 0
1 1297 1432 0
1 -1297 1296 0
1 -1433 -1431 0
1 -1431 -1432 0
1 1431 1434 0
1 -1431 -1435 0
1 1425 -1436 0
1 -1425 -1437 0
1 -1438 -1280 0
1 -1439 -1440 0
1 1439 1302 0
1 1439 -1441 0
1 1311 1441 0
1 1311 -1442 0
1 1311 1302 0
1 -1442 1443 0
1 -1441 1293 0
1 -1444 -1445 0
1 -1444 -1311 0
1 1289 -1440 0
1 1315 -1302 0
1 -1318 -1442 0
1 1318 1441 0
1 1318 -1446 0
1 1446 -1299 0
1 1447 -1443 0
1 1447 -1448 0
1 -1449 1450 0
1 1449 1451 0
1 1449 1318 0
1 -1313 -1314 0
1 -1313 1130 0
1 -1312 -1314 0
1 1312 -1445 0
1 -1452 1453 0
1 1452 -1454 0
1 -1455 1456 0
1 1455 1318 0
1 -1457 1452 0
1 -1454 1456 0
1 -1454 -1312 0
1 1458 1321 0
1 1459 1460 0
1 -1459 1326 0
1 1461 1456 0
1 1462 1308 0
1 1462 1459 0
1 1462 -1320 0
1 -1462 1461 0
1 1462 -1463 0
1 1464 -1314 0
1 1464 -1459 0
1 -1465 1321 0
1 -1465 1466 0
1 -1341 1467 0
1 1468 1467 0
1 -1468 1469 0
1 1468 1328 0
1 1469 1470 0
1 1466 -1471 0
1 -1466 1472 0
1 1473 -1474 0
1 -1475 -1474 0
1 -1334 1323 0
1 -1334 1466 0
1 -1476 1466 0
1 1467 1477 0
1 -1467 1478 0
1 -1467 1334 0
1 1479 1480 0
1 1478 -1481 0
1 1478 1340 0
1 1478 1337 0
1 -1478 1482 0
1 -1481 1344 0
1 -1483 -1484 0
1 1485 1486 0
1 -1337 -1477 0
1 -1337 -1487 0
1 1357 -1488 0
1 1347 -1346 0
1 1489 1490 0
1 -1491 -1492 0
1 -1488 -1332 0
1 1356 -1353 0
1 -1356 1493 0
1 1356 1355 0
1 1363 1494 0
1 -1363 -1354 0
1 -1362 -1495 0
1 -1362 1496 0
1 -1496 1353 0
1 1496 1497 0
1 -1498 -1499 0
1 1498 -1500 0
1 -1497 1501 0
1 1497 -1499 0
1 1494 1502 0
1 1493 1502 0
1 1493 -1503 0
1 1493 1504 0
1 1501 -1505 0
1 -1500 -1360 0
1 1500 1506 0
1 1374 1368 0
1 -1374 1507 0
1 1374 -1506 0
1 1374 -1508 0
1 1377 1373 0
1 -1506 1501 0
1 1506 -1509 0
1 1510 1374 0
1 1511 -1500 0
1 1512 -1359 0
1 -1513 -1506 0
1 -1513 1509 0
1 1508 1514 0
1 1507 1374 0
1 -1507 1379 0
1 -1507 -1508 0
1 1515 1374 0
1 -1515 -1377 0
1 -1515 -1514 0
1 -1515 1516 0
1 1515 1512 0
1 -1382 1507 0
1 1382 -1517 0
1 -1379 1375 0
1 1518 1392 0
1 -1392 1519 0
1 -1392 1520 0
1 -1392 -1390 0
1 1521 1398 0
1 -1517 -1392 0
1 -1520 -1522 0
1 -1520 1513 0
1 1523 1514 0
1 -1524 1390 0
1 -1398 -1525 0
1 -1398 -1397 0
1 1398 1526 0
1 -1398 -1527 0
1 1380 1523 0
1 1381 -1518 0
1 1528 1529 0
1 1528 1291 0
1 -1426 1530 0
1 -1531 -1532 0
1 -1531 -1533 0
1 1534 -1535 0
1 1530 -1531 0
1 1530 1528 0
1 1536 1537 0
1 1421 1530 0
1 -1421 -1418 0
1 1422 1538 0
1 1422 -1421 0
1 -1539 1412 0
1 1539 -1418 0
1 1539 -1297 0
1 -1539 -1540 0
1 -1539 1541 0
1 -1535 1418 0
1 -1535 1540 0
1 -1540 1426 0
1 1412 1531 0
1 -1412 -1535 0
1 1412 -1422 0
1 -1542 1543 0
1 1544 1545 0
1 1543 -1539 0
1 -1546 1547 0
1 1546 -1548 0
1 -1549 -1547 0
1 1549 -1550 0
1 -1551 -1427 0
1 -1551 1546 0
1 -1435 1551 0
1 1435 -1546 0
1 1435 1543 0
1 1552 1553 0
1 1553 -1543 0
1 -1553 -1545 0
1 -1427 1551 0
1 1427 1445 0
1 1554 -1551 0
1 -1545 1555 0
1 -1545 -1556 0
1 -1429 1557 0
1 1429 1551 0
1 1451 1444 0
1 -1451 -1434 0
1 -1445 -1451 0
1 -1445 -1556 0
1 1450 1449 0
1 1558 1559 0
1 -1558 1560 0
1 1561 1552 0
1 -1561 -1460 0
1 1434 -1562 0
1 1434 -1448 0
1 1436 -1563 0
1 1564 -1565 0
1 1564 -1566 0
1 -1448 1559 0
1 1448 -1463 0
1 -1567 1446 0
1 -1562 -1568 0
1 -1562 1569 0
1 -1460 -1559 0
1 1460 -1434 0
1 1460 1454 0
1 1559 -1570 0
1 -1560 -1450 0
1 1560 1571 0
1 -1560 1460 0
1 -1572 -1573 0
1 1569 -1572 0
1 1569 -1567 0
1 -1570 1457 0
1 1570 1559 0
1 1570 -1574 0
1 1575 1576 0
1 -1577 1464 0
1 -1577 -1578 0
1 1579 1580 0
1 -1579 -1559 0
1 -1579 -1574 0
1 -1579 1581 0
1 1582 -1575 0
1 -1582 -1460 0
1 1583 1582 0
1 -1568 -1570 0
1 1568 1562 0
1 1581 1571 0
1 -1581 1562 0
1 -1584 1571 0
1 -1584 -1585 0
1 -1584 1583 0
1 1586 -1587 0
1 1585 1471 0
1 1585 -1588 0
1 -1585 -1577 0
1 -1589 -1590 0
1 -1589 -1470 0
1 1589 1586 0
1 1578 -1591 0
1 1578 -1579 0
1 -1578 1592 0
1 -1578 -1454 0
1 -1470 -1585 0
1 1470 -1593 0
1 1470 1594 0
1 1471 -1470 0
1 -1471 1585 0
1 -1471 -1593 0
1 1588 -1589 0
1 1588 -1595 0
1 1596 1585 0
1 1596 -1597 0
1 -1597 1487 0
1 -1593 -1470 0
1 1598 1599 0
1 1600 1479 0
1 -1600 -1357 0
1 1600 -1590 0
1 -1600 1486 0
1 -1486 -1479 0
1 -1490 -1601 0
1 1490 1602 0
1 1487 -1472 0
1 1472 -1603 0
1 1604 -1605 0
1 1604 1606 0
1 -1595 -1604 0
1 -1607 -1608 0
1 -1608 1483 0
1 -1608 -1488 0
1 -1603 1609 0
1 1610 -1602 0
1 -1602 -1608 0
1 -1611 1607 0
1 -1611 -1612 0
1 -1613 1605 0
1 1613 1608 0
1 1505 -1614 0
1 1615 1614 0
1 -1615 1488 0
1 -1502 -1616 0
1 1503 -1502 0
1 1503 -1617 0
1 1618 1603 0
1 1484 -1619 0
1 1484 -1620 0
1 -1617 -1503 0
1 -1499 -1616 0
1 -1499 -1498 0
1 1621 -1484 0
1 1621 1509 0
1 1622 -1623 0
1 -1623 1624 0
1 -1623 1625 0
1 -1623 1499 0
1 1623 -1621 0
1 -1492 -1624 0
1 1492 1623 0
1 1492 -1626 0
1 1616 -1619 0
1 1627 1628 0
1 1516 1506 0
1 1629 -1511 0
1 1629 1623 0
1 -1629 1630 0
1 1626 1631 0
1 1626 -1623 0
1 -1626 -1632 0
1 1626 -1633 0
1 -1625 1634 0
1 -1625 -1633 0
1 -1635 -1636 0
1 -1504 1625 0
1 -1514 1631 0
1 -1514 1508 0
1 1637 -1632 0
1 -1526 -1638 0
1 -1526 1635 0
1 1522 -1636 0
1 -1638 1637 0
1 -1638 -1514 0
1 -1639 -1549 0
1 1640 1641 0
1 -1642 1641 0
1 -1642 -1643 0
1 1642 1537 0
1 -1642 1644 0
1 -1645 1549 0
1 -1645 -1553 0
1 1643 -1547 0
1 1537 -1645 0
1 1556 -1646 0
1 1555 -1644 0
1 1555 1647 0
1 1555 1648 0
1 -1649 -1557 0
1 -1650 -1651 0
1 -1646 -1642 0
1 -1646 -1555 0
1 1566 1648 0
1 1652 1653 0
1 1652 1566 0
1 -1653 -1654 0
1 1550 1655 0
1 1565 1656 0
1 -1657 -1580 0
1 -1657 -1658 0
1 1659 -1660 0
1 1659 -1661 0
1 1658 1565 0
1 1658 -1652 0
1 1658 1662 0
1 -1658 1573 0
1 -1656 1565 0
1 -1663 1657 0
1 -1573 1568 0
1 1571 1581 0
1 1661 1659 0
1 1664 1665 0
1 1664 1568 0
1 1664 -1666 0
1 -1667 1661 0
1 1668 -1669 0
1 -1668 1670 0
1 1668 -1661 0
1 -1671 -1672 0
1 1671 -1571 0
1 -1673 -1661 0
1 -1674 1581 0
1 -1674 -1578 0
1 -1675 -1667 0
1 1675 1676 0
1 -1675 -1587 0
1 -1675 -1677 0
1 -1678 -1668 0
1 -1665 1675 0
1 1665 1679 0
1 -1665 1592 0
1 -1680 1590 0
1 -1681 -1682 0
1 1666 1674 0
1 -1590 -1585 0
1 1590 1578 0
1 1592 1589 0
1 1683 1684 0
1 1676 1675 0
1 1677 1685 0
1 -1677 1686 0
1 -1606 -1687 0
1 1684 -1609 0
1 -1684 1595 0
1 -1684 -1688 0
1 -1689 1690 0
1 1690 1599 0
1 1690 -1606 0
1 -1690 1679 0
1 1691 -1692 0
1 1691 -1599 0
1 -1591 1693 0
1 1694 1611 0
1 -1695 1690 0
1 -1695 1696 0
1 -1695 1697 0
1 1698 1695 0
1 1698 -1699 0
1 -1698 1503 0
1 -1698 -1611 0
1 -1700 1695 0
1 1699 1701 0
1 -1699 -1702 0
1 -1703 1704 0
1 -1703 1698 0
1 1696 -1695 0
1 1696 -1705 0
1 1706 1619 0
1 -1707 -1613 0
1 1707 -1499 0
1 -1708 1709 0
1 1697 1695 0
1 -1697 -1710 0
1 -1711 -1706 0
1 1711 1595 0
1 -1620 1616 0
1 1620 -1617 0
1 -1620 1627 0
1 -1710 -1616 0
1 1710 -1620 0
1 -1712 1612 0
1 1713 -1628 0
1 1713 -1620 0
1 1612 1714 0
1 -1612 1710 0
1 -1612 -1702 0
1 1715 1710 0
1 1715 1716 0
1 -1624 -1713 0
1 1624 1717 0
1 1624 -1504 0
1 1718 -1522 0
1 1719 -1624 0
1 1719 -1628 0
1 1720 -1716 0
1 1721 -1628 0
1 -1651 -1722 0
1 -1723 1724 0
1 1723 1725 0
1 1726 -1727 0
1 1726 -1724 0
1 1728 -1729 0
1 1730 1573 0
1 -1731 -1725 0
1 -1732 -1731 0
1 -1732 1729 0
1 -1729 -1732 0
1 -1729 1728 0
1 1729 1731 0
1 -1733 1734 0
1 1735 -1732 0
1 -1662 1655 0
1 -1672 -1678 0
1 1672 1733 0
1 -1736 -1737 0
1 1736 -1738 0
1 -1736 -1662 0
1 1739 -1736 0
1 1739 1740 0
1 -1741 -1742 0
1 1655 1743 0
1 -1670 1671 0
1 1670 -1682 0
1 -1682 -1742 0
1 -1738 1744 0
1 1738 -1745 0
1 -1738 -1739 0
1 1738 -1746 0
1 -1747 1681 0
1 1748 -1749 0
1 1750 -1672 0
1 1750 -1748 0
1 1750 1747 0
1 1746 1744 0
1 -1685 1676 0
1 1685 1750 0
1 -1685 1680 0
1 1685 -1687 0
1 -1687 1745 0
1 1749 1745 0
1 1745 -1693 0
1 -1745 1751 0
1 -1745 1687 0
1 -1751 1693 0
1 -1751 1752 0
1 -1751 -1753 0
1 -1751 1668 0
1 -1754 -1755 0
1 -1756 -1685 0
1 -1752 1694 0
1 -1752 -1745 0
1 1752 1683 0
1 -1686 -1676 0
1 1686 -1691 0
1 1686 1751 0
1 1693 1695 0
1 -1693 -1691 0
1 1753 1757 0
1 1753 -1758 0
1 1759 -1760 0
1 1759 1758 0
1 1759 -1761 0
1 -1758 1759 0
1 1758 1686 0
1 -1762 -1749 0
1 1692 1763 0
1 1760 -1696 0
1 -1764 -1765 0
1 -1764 -1766 0
1 1767 1764 0
1 -1757 -1683 0
1 -1763 -1693 0
1 1766 -1764 0
1 1766 1753 0
1 1768 1769 0
1 -1768 -1760 0
1 -1770 -1696 0
1 1770 -1757 0
1 1704 -1770 0
1 -1771 -1701 0
1 -1771 1772 0
1 1771 -1773 0
1 1774 -1775 0
1 1765 1776 0
1 -1777 -1778 0
1 1777 1779 0
1 1776 -1705 0
1 -1776 -1701 0
1 -1780 -1701 0
1 1781 1782 0
1 1714 1765 0
1 -1714 1781 0
1 1701 1699 0
1 -1701 1775 0
1 -1705 -1776 0
1 1743 1733 0
1 1742 1729 0
1 1783 -1784 0
1 -1783 -1655 0
1 1783 -1785 0
1 1786 1784 0
1 1786 1747 0
1 -1787 1727 0
1 -1787 -1740 0
1 -1787 -1786 0
1 -1788 1786 0
1 1740 1741 0
1 -1740 1789 0
1 -1790 1791 0
1 -1790 1792 0
1 1793 -1744 0
1 1793 -1787 0
1 -1794 -1783 0
1 1795 -1796 0
1 -1795 -1797 0
1 1789 1790 0
1 -1798 -1799 0
1 -1800 -1744 0
1 -1800 1795 0
1 -1801 1802 0
1 1801 -1791 0
1 1797 1754 0
1 1797 1799 0
1 1799 -1800 0
1 -1799 1793 0
1 1799 1736 0
1 -1791 1803 0
1 -1791 -1797 0
1 -1804 -1797 0
1 -1755 -1805 0
1 -1806 -1807 0
1 1806 1802 0
1 -1806 -1799 0
1 -1808 1807 0
1 -1808 1809 0
1 -1808 -1762 0
1 1807 -1806 0
1 1805 -1755 0
1 1769 -1810 0
1 1769 -1761 0
1 1811 -1812 0
1 -1772 1813 0
1 1814 -1815 0
1 1816 1769 0
1 -1816 1811 0
1 1810 -1806 0
1 -1810 -1817 0
1 1815 -1818 0
1 -1815 -1819 0
1 1778 1777 0
1 -1778 -1780 0
1 -1778 1768 0
1 1779 1820 0
1 -1813 -1811 0
1 1819 1779 0
1 1818 1809 0
1 -1821 -1795 0
1 1796 -1755 0
1 1796 1822 0
1 -1796 -1789 0
1 -1823 -1822 0
1 -1824 1825 0
1 1826 -1824 0
1 -1827 -1785 0
1 1828 -1823 0
1 -1828 1796 0
1 1829 1807 0
1 1829 1805 0
1 1829 1761 0
1 -1830 1807 0
1 1831 -1832 0
1 1825 -1829 0
1 1825 -1833 0
1 1834 1830 0
1 1835 -1832 0
1 -1833 -1805 0
1 -1833 -1831 0
1 1817 1779 0
1 1836 -1833 0
1 1803 1832 0
